
Gurobi 11.0.0 (win64) logging started Fri Apr 26 12:39:27 2024

Set parameter LogFile to value "./Results/StripPacking_CutsTest_SBM/Logs/SBM-StripPacking-10.log"
Set parameter TimeLimit to value 3600
Set parameter Cuts to value 1
Set parameter Presolve to value 1
Set parameter Heuristics to value 1
Gurobi Optimizer version 11.0.0 build v11.0.0rc2 (win64 - Windows 10.0 (19045.2))

CPU model: Intel(R) Core(TM) i9-10980XE CPU @ 3.00GHz, instruction set [SSE2|AVX|AVX2|AVX512]
Thread count: 18 physical cores, 36 logical processors, using up to 18 threads

Optimize a model with 820 rows, 156 columns and 2450 nonzeros
Model fingerprint: 0x72cea119
Variable types: 66 continuous, 90 integer (90 binary)
Coefficient statistics:
  Matrix range     [1e+00, 1e+02]
  Objective range  [1e+00, 1e+00]
  Bounds range     [1e+00, 1e+02]
  RHS range        [1e+00, 1e+02]
Presolve removed 206 rows and 13 columns
Presolve time: 0.00s
Presolved: 614 rows, 143 columns, 2027 nonzeros
Variable types: 57 continuous, 86 integer (86 binary)

Root relaxation: objective 1.190000e+02, 99 iterations, 0.00 seconds (0.00 work units)

    Nodes    |    Current Node    |     Objective Bounds      |     Work
 Expl Unexpl |  Obj  Depth IntInf | Incumbent    BestBd   Gap | It/Node Time

     0     0  119.00000    0    7          -  119.00000      -     -    0s
     0     0  119.00000    0   24          -  119.00000      -     -    0s
     0     0  119.00000    0   22          -  119.00000      -     -    0s
     0     0  119.00000    0    5          -  119.00000      -     -    0s
     0     0  119.00000    0    5          -  119.00000      -     -    0s
H    0     0                     145.0000000  119.00000  17.9%     -    0s
     0     0  119.00000    0   15  145.00000  119.00000  17.9%     -    0s
     0     0  119.00000    0   15  145.00000  119.00000  17.9%     -    0s
     0     0  119.00000    0    6  145.00000  119.00000  17.9%     -    0s
H    0     0                     143.0000000  119.00000  16.8%     -    0s
     0     0  119.00000    0   16  143.00000  119.00000  16.8%     -    0s
     0     0  119.00000    0   19  143.00000  119.00000  16.8%     -    0s
     0     0  119.00000    0   12  143.00000  119.00000  16.8%     -    0s
     0     0  119.00000    0    8  143.00000  119.00000  16.8%     -    0s
     0     0  119.00000    0    8  143.00000  119.00000  16.8%     -    0s
     0     2  119.00000    0    8  143.00000  119.00000  16.8%     -    0s
H  151   138                     143.0000000  119.00000  16.8%  23.4    0s
  2239   371  130.00000   14   14  143.00000  126.00000  11.9%   9.8    5s

Cutting planes:
  Learned: 33
  Gomory: 2
  Cover: 37
  MIR: 75
  Flow cover: 109
  Zero half: 1
  Network: 1
  RLT: 7
  Relax-and-lift: 2

Explored 5825 nodes (40466 simplex iterations) in 8.50 seconds (7.07 work units)
Thread count was 18 (of 36 available processors)

Solution count 3: 143 143 145 

Optimal solution found (tolerance 1.00e-04)
Best objective 1.429999999856e+02, best bound 1.429999999856e+02, gap 0.0000%

Gurobi 11.0.0 (win64) logging started Fri Apr 26 12:39:36 2024

Set parameter LogFile to value "./Results/StripPacking_CutsTest_SBM/Logs/SBM-StripPacking-10.log"
Set parameter TimeLimit to value 3600
Set parameter Cuts to value 1
Set parameter Presolve to value 0
Set parameter Heuristics to value 0
Gurobi Optimizer version 11.0.0 build v11.0.0rc2 (win64 - Windows 10.0 (19045.2))

CPU model: Intel(R) Core(TM) i9-10980XE CPU @ 3.00GHz, instruction set [SSE2|AVX|AVX2|AVX512]
Thread count: 18 physical cores, 36 logical processors, using up to 18 threads

Optimize a model with 820 rows, 156 columns and 2450 nonzeros
Model fingerprint: 0x72cea119
Variable types: 66 continuous, 90 integer (90 binary)
Coefficient statistics:
  Matrix range     [1e+00, 1e+02]
  Objective range  [1e+00, 1e+00]
  Bounds range     [1e+00, 1e+02]
  RHS range        [1e+00, 1e+02]
Variable types: 66 continuous, 90 integer (90 binary)

Root relaxation: objective 7.763305e+01, 121 iterations, 0.00 seconds (0.00 work units)

    Nodes    |    Current Node    |     Objective Bounds      |     Work
 Expl Unexpl |  Obj  Depth IntInf | Incumbent    BestBd   Gap | It/Node Time

     0     0   77.63305    0   19          -   77.63305      -     -    0s
     0     0  119.00000    0    8          -  119.00000      -     -    0s
     0     0  119.00000    0   19          -  119.00000      -     -    0s
     0     0  119.00000    0   24          -  119.00000      -     -    0s
     0     0  119.00000    0   27          -  119.00000      -     -    0s
     0     0  119.00000    0    7          -  119.00000      -     -    0s
     0     0  119.00000    0   19          -  119.00000      -     -    0s
     0     0  119.00000    0   22          -  119.00000      -     -    0s
     0     0  119.00000    0   27          -  119.00000      -     -    0s
     0     0  119.00000    0   12          -  119.00000      -     -    0s
     0     0  119.00000    0   12          -  119.00000      -     -    0s
     0     2  119.00000    0   11          -  119.00000      -     -    0s
* 2308   845              22     144.0000000  126.00000  12.5%   6.5    0s
*15404   958              25     143.0000000  142.00000  0.70%   4.7    0s

Cutting planes:
  Gomory: 3
  Cover: 36
  Implied bound: 3
  Clique: 2
  MIR: 60
  Flow cover: 95
  RLT: 8
  Relax-and-lift: 3

Explored 16870 nodes (79838 simplex iterations) in 0.56 seconds (0.32 work units)
Thread count was 18 (of 36 available processors)

Solution count 2: 143 144 

Optimal solution found (tolerance 1.00e-04)
Best objective 1.430000000000e+02, best bound 1.430000000000e+02, gap 0.0000%

Gurobi 11.0.0 (win64) logging started Fri Apr 26 12:39:36 2024

Set parameter LogFile to value "./Results/StripPacking_CutsTest_SBM/Logs/SBM-StripPacking-10.log"
Set parameter TimeLimit to value 3600
Set parameter Cuts to value 0
Set parameter Presolve to value 1
Set parameter Heuristics to value 0
Gurobi Optimizer version 11.0.0 build v11.0.0rc2 (win64 - Windows 10.0 (19045.2))

CPU model: Intel(R) Core(TM) i9-10980XE CPU @ 3.00GHz, instruction set [SSE2|AVX|AVX2|AVX512]
Thread count: 18 physical cores, 36 logical processors, using up to 18 threads

Optimize a model with 820 rows, 156 columns and 2450 nonzeros
Model fingerprint: 0x72cea119
Variable types: 66 continuous, 90 integer (90 binary)
Coefficient statistics:
  Matrix range     [1e+00, 1e+02]
  Objective range  [1e+00, 1e+00]
  Bounds range     [1e+00, 1e+02]
  RHS range        [1e+00, 1e+02]
Presolve removed 206 rows and 13 columns
Presolve time: 0.00s
Presolved: 614 rows, 143 columns, 2027 nonzeros
Variable types: 57 continuous, 86 integer (86 binary)

Root relaxation: objective 1.190000e+02, 99 iterations, 0.00 seconds (0.00 work units)

    Nodes    |    Current Node    |     Objective Bounds      |     Work
 Expl Unexpl |  Obj  Depth IntInf | Incumbent    BestBd   Gap | It/Node Time

     0     0  119.00000    0    7          -  119.00000      -     -    0s
     0     0  119.00000    0    7          -  119.00000      -     -    0s
     0     2  119.00000    0    7          -  119.00000      -     -    0s
* 3843  1242              26     144.0000000  119.00000  17.4%   6.4    0s
* 4973  1425              25     143.0000000  119.00000  16.8%   7.2    0s

Explored 5944 nodes (55190 simplex iterations) in 0.25 seconds (0.23 work units)
Thread count was 18 (of 36 available processors)

Solution count 2: 143 144 

Optimal solution found (tolerance 1.00e-04)
Best objective 1.430000000000e+02, best bound 1.430000000000e+02, gap 0.0000%

Gurobi 11.0.0 (win64) logging started Fri Apr 26 12:39:37 2024

Set parameter LogFile to value "./Results/StripPacking_CutsTest_SBM/Logs/SBM-StripPacking-10.log"
Set parameter TimeLimit to value 3600
Set parameter Cuts to value 0
Set parameter Presolve to value 0
Set parameter Heuristics to value 1
Gurobi Optimizer version 11.0.0 build v11.0.0rc2 (win64 - Windows 10.0 (19045.2))

CPU model: Intel(R) Core(TM) i9-10980XE CPU @ 3.00GHz, instruction set [SSE2|AVX|AVX2|AVX512]
Thread count: 18 physical cores, 36 logical processors, using up to 18 threads

Optimize a model with 820 rows, 156 columns and 2450 nonzeros
Model fingerprint: 0x72cea119
Variable types: 66 continuous, 90 integer (90 binary)
Coefficient statistics:
  Matrix range     [1e+00, 1e+02]
  Objective range  [1e+00, 1e+00]
  Bounds range     [1e+00, 1e+02]
  RHS range        [1e+00, 1e+02]
Variable types: 66 continuous, 90 integer (90 binary)

Root relaxation: objective 7.763305e+01, 121 iterations, 0.00 seconds (0.00 work units)

    Nodes    |    Current Node    |     Objective Bounds      |     Work
 Expl Unexpl |  Obj  Depth IntInf | Incumbent    BestBd   Gap | It/Node Time

     0     0   77.63305    0   19          -   77.63305      -     -    0s
     0     0  119.00000    0    8          -  119.00000      -     -    0s
     0     0  119.00000    0    8          -  119.00000      -     -    0s
     0     2  119.00000    0    8          -  119.00000      -     -    0s
* 7810  1313              22     143.0000000  136.00000  4.90%   5.0    0s

Explored 8348 nodes (45352 simplex iterations) in 0.33 seconds (0.29 work units)
Thread count was 18 (of 36 available processors)

Solution count 1: 143 

Optimal solution found (tolerance 1.00e-04)
Best objective 1.430000000000e+02, best bound 1.430000000000e+02, gap 0.0000%

Gurobi 11.0.0 (win64) logging started Fri Apr 26 12:39:37 2024

Set parameter LogFile to value "./Results/StripPacking_CutsTest_SBM/Logs/SBM-StripPacking-10.log"
Set parameter TimeLimit to value 3600
Set parameter Cuts to value 1
Set parameter Presolve to value 1
Set parameter Heuristics to value 0
Gurobi Optimizer version 11.0.0 build v11.0.0rc2 (win64 - Windows 10.0 (19045.2))

CPU model: Intel(R) Core(TM) i9-10980XE CPU @ 3.00GHz, instruction set [SSE2|AVX|AVX2|AVX512]
Thread count: 18 physical cores, 36 logical processors, using up to 18 threads

Optimize a model with 820 rows, 156 columns and 2450 nonzeros
Model fingerprint: 0x72cea119
Variable types: 66 continuous, 90 integer (90 binary)
Coefficient statistics:
  Matrix range     [1e+00, 1e+02]
  Objective range  [1e+00, 1e+00]
  Bounds range     [1e+00, 1e+02]
  RHS range        [1e+00, 1e+02]
Presolve removed 206 rows and 13 columns
Presolve time: 0.00s
Presolved: 614 rows, 143 columns, 2027 nonzeros
Variable types: 57 continuous, 86 integer (86 binary)

Root relaxation: objective 1.190000e+02, 99 iterations, 0.00 seconds (0.00 work units)

    Nodes    |    Current Node    |     Objective Bounds      |     Work
 Expl Unexpl |  Obj  Depth IntInf | Incumbent    BestBd   Gap | It/Node Time

     0     0  119.00000    0    7          -  119.00000      -     -    0s
     0     0  119.00000    0   24          -  119.00000      -     -    0s
     0     0  119.00000    0   22          -  119.00000      -     -    0s
     0     0  119.00000    0    6          -  119.00000      -     -    0s
     0     0  119.00000    0    6          -  119.00000      -     -    0s
     0     0  119.00000    0    6          -  119.00000      -     -    0s
     0     0  119.00000    0    8          -  119.00000      -     -    0s
     0     0  119.00000    0    7          -  119.00000      -     -    0s
     0     0  119.00000    0   10          -  119.00000      -     -    0s
     0     0  119.00000    0    4          -  119.00000      -     -    0s
     0     0  119.00000    0   10          -  119.00000      -     -    0s
     0     0  119.00000    0    4          -  119.00000      -     -    0s
     0     0  119.00000    0   10          -  119.00000      -     -    0s
     0     0  119.00000    0    9          -  119.00000      -     -    0s
     0     0  119.00000    0    9          -  119.00000      -     -    0s
     0     2  119.00000    0    9          -  119.00000      -     -    0s
* 1438   469              24     143.0000000  130.00000  9.09%   6.7    0s

Cutting planes:
  Learned: 22
  Cover: 26
  MIR: 56
  StrongCG: 1
  Flow cover: 65
  Inf proof: 4
  Zero half: 1
  RLT: 1

Explored 6559 nodes (33225 simplex iterations) in 0.38 seconds (0.18 work units)
Thread count was 18 (of 36 available processors)

Solution count 1: 143 

Optimal solution found (tolerance 1.00e-04)
Best objective 1.430000000000e+02, best bound 1.430000000000e+02, gap 0.0000%

Gurobi 11.0.0 (win64) logging started Fri Apr 26 12:39:38 2024

Set parameter LogFile to value "./Results/StripPacking_CutsTest_SBM/Logs/SBM-StripPacking-10.log"
Set parameter TimeLimit to value 3600
Set parameter Cuts to value 1
Set parameter Presolve to value 0
Set parameter Heuristics to value 1
Gurobi Optimizer version 11.0.0 build v11.0.0rc2 (win64 - Windows 10.0 (19045.2))

CPU model: Intel(R) Core(TM) i9-10980XE CPU @ 3.00GHz, instruction set [SSE2|AVX|AVX2|AVX512]
Thread count: 18 physical cores, 36 logical processors, using up to 18 threads

Optimize a model with 820 rows, 156 columns and 2450 nonzeros
Model fingerprint: 0x72cea119
Variable types: 66 continuous, 90 integer (90 binary)
Coefficient statistics:
  Matrix range     [1e+00, 1e+02]
  Objective range  [1e+00, 1e+00]
  Bounds range     [1e+00, 1e+02]
  RHS range        [1e+00, 1e+02]
Variable types: 66 continuous, 90 integer (90 binary)

Root relaxation: objective 7.763305e+01, 121 iterations, 0.00 seconds (0.00 work units)

    Nodes    |    Current Node    |     Objective Bounds      |     Work
 Expl Unexpl |  Obj  Depth IntInf | Incumbent    BestBd   Gap | It/Node Time

     0     0   77.63305    0   19          -   77.63305      -     -    0s
     0     0  119.00000    0    8          -  119.00000      -     -    0s
     0     0  119.00000    0   19          -  119.00000      -     -    0s
     0     0  119.00000    0   14          -  119.00000      -     -    0s
     0     0  119.00000    0   15          -  119.00000      -     -    0s
     0     0  119.00000    0   12          -  119.00000      -     -    0s
     0     0  119.00000    0   15          -  119.00000      -     -    0s
     0     0  119.00000    0    7          -  119.00000      -     -    0s
     0     0  119.00000    0   16          -  119.00000      -     -    0s
     0     0  119.00000    0    9          -  119.00000      -     -    0s
     0     0  119.00000    0    9          -  119.00000      -     -    0s
     0     2  119.00000    0    9          -  119.00000      -     -    0s
H 3209   640                     144.0000000  137.00000  4.86%   4.7    0s
* 5602   654              27     143.0000000  137.00000  4.20%   4.1    0s
H 7176   126                     143.0000000  137.00000  4.20%   3.8    0s

Cutting planes:
  Gomory: 1
  Cover: 17
  Implied bound: 1
  Clique: 2
  MIR: 34
  Flow cover: 40
  Zero half: 1
  RLT: 2
  Relax-and-lift: 3

Explored 7496 nodes (29517 simplex iterations) in 1.06 seconds (0.79 work units)
Thread count was 18 (of 36 available processors)

Solution count 3: 143 143 144 

Optimal solution found (tolerance 1.00e-04)
Best objective 1.429999999856e+02, best bound 1.429999999856e+02, gap 0.0000%

Gurobi 11.0.0 (win64) logging started Fri Apr 26 12:39:39 2024

Set parameter LogFile to value "./Results/StripPacking_CutsTest_SBM/Logs/SBM-StripPacking-10.log"
Set parameter TimeLimit to value 3600
Set parameter Cuts to value 0
Set parameter Presolve to value 1
Set parameter Heuristics to value 1
Gurobi Optimizer version 11.0.0 build v11.0.0rc2 (win64 - Windows 10.0 (19045.2))

CPU model: Intel(R) Core(TM) i9-10980XE CPU @ 3.00GHz, instruction set [SSE2|AVX|AVX2|AVX512]
Thread count: 18 physical cores, 36 logical processors, using up to 18 threads

Optimize a model with 820 rows, 156 columns and 2450 nonzeros
Model fingerprint: 0x72cea119
Variable types: 66 continuous, 90 integer (90 binary)
Coefficient statistics:
  Matrix range     [1e+00, 1e+02]
  Objective range  [1e+00, 1e+00]
  Bounds range     [1e+00, 1e+02]
  RHS range        [1e+00, 1e+02]
Presolve removed 206 rows and 13 columns
Presolve time: 0.02s
Presolved: 614 rows, 143 columns, 2027 nonzeros
Variable types: 57 continuous, 86 integer (86 binary)

Root relaxation: objective 1.190000e+02, 99 iterations, 0.00 seconds (0.00 work units)

    Nodes    |    Current Node    |     Objective Bounds      |     Work
 Expl Unexpl |  Obj  Depth IntInf | Incumbent    BestBd   Gap | It/Node Time

     0     0  119.00000    0    7          -  119.00000      -     -    0s
     0     0  119.00000    0    7          -  119.00000      -     -    0s
     0     2  119.00000    0    7          -  119.00000      -     -    0s
* 3809  1244              26     144.0000000  119.00000  17.4%   6.4    0s
H 5051  1421                     144.0000000  119.00000  17.4%   6.8    0s
* 5070  1341              19     143.0000000  119.00000  16.8%   6.9    0s

Explored 5480 nodes (42312 simplex iterations) in 1.48 seconds (1.73 work units)
Thread count was 18 (of 36 available processors)

Solution count 3: 143 144 144 

Optimal solution found (tolerance 1.00e-04)
Best objective 1.430000000000e+02, best bound 1.430000000000e+02, gap 0.0000%

Gurobi 11.0.0 (win64) logging started Fri Apr 26 12:39:40 2024

Set parameter LogFile to value "./Results/StripPacking_CutsTest_SBM/Logs/SBM-StripPacking-10.log"
Set parameter TimeLimit to value 3600
Set parameter Cuts to value 0
Set parameter Presolve to value 0
Set parameter Heuristics to value 0
Gurobi Optimizer version 11.0.0 build v11.0.0rc2 (win64 - Windows 10.0 (19045.2))

CPU model: Intel(R) Core(TM) i9-10980XE CPU @ 3.00GHz, instruction set [SSE2|AVX|AVX2|AVX512]
Thread count: 18 physical cores, 36 logical processors, using up to 18 threads

Optimize a model with 820 rows, 156 columns and 2450 nonzeros
Model fingerprint: 0x72cea119
Variable types: 66 continuous, 90 integer (90 binary)
Coefficient statistics:
  Matrix range     [1e+00, 1e+02]
  Objective range  [1e+00, 1e+00]
  Bounds range     [1e+00, 1e+02]
  RHS range        [1e+00, 1e+02]
Variable types: 66 continuous, 90 integer (90 binary)

Root relaxation: objective 7.763305e+01, 121 iterations, 0.00 seconds (0.00 work units)

    Nodes    |    Current Node    |     Objective Bounds      |     Work
 Expl Unexpl |  Obj  Depth IntInf | Incumbent    BestBd   Gap | It/Node Time

     0     0   77.63305    0   19          -   77.63305      -     -    0s
     0     0  119.00000    0    8          -  119.00000      -     -    0s
     0     0  119.00000    0    8          -  119.00000      -     -    0s
     0     2  119.00000    0    8          -  119.00000      -     -    0s
* 7448  1318              21     143.0000000  136.00000  4.90%   4.6    0s

Explored 8157 nodes (46308 simplex iterations) in 0.25 seconds (0.22 work units)
Thread count was 18 (of 36 available processors)

Solution count 1: 143 

Optimal solution found (tolerance 1.00e-04)
Best objective 1.430000000000e+02, best bound 1.430000000000e+02, gap 0.0000%
